logs/miss/ip/miss-05-30-1.sol
# Objective value = 4
x0,1_7 0
x0,1_26 0
x0,1_29 1
x0,1_48 0
x0,1_55 0
x0,2_7 0
x0,2_26 0
x0,2_29 0
x0,2_48 1
x0,2_55 0
x0,3_7 0
x0,3_26 0
x0,3_29 0
x0,3_48 0
x0,3_55 1
x0,4_7 0
x0,4_26 0
x0,4_29 0
x0,4_48 0
x0,4_55 0
x0,5_7 0
x0,5_26 0
x0,5_29 0
x0,5_48 0
x0,5_55 0
x1,2_7 0
x1,2_26 0
x1,2_29 0
x1,2_48 0
x1,2_55 0
x1,3_7 0
x1,3_26 1
x1,3_29 0
x1,3_48 0
x1,3_55 0
x1,4_7 0
x1,4_26 0
x1,4_29 0
x1,4_48 0
x1,4_55 0
x1,5_7 0
x1,5_26 0
x1,5_29 0
x1,5_48 0
x1,5_55 0
x2,3_7 1
x2,3_26 0
x2,3_29 0
x2,3_48 0
x2,3_55 0
x2,4_7 0
x2,4_26 0
x2,4_29 0
x2,4_48 0
x2,4_55 0
x2,5_7 0
x2,5_26 0
x2,5_29 0
x2,5_48 0
x2,5_55 0
x3,4_7 0
x3,4_26 0
x3,4_29 0
x3,4_48 0
x3,4_55 0
x3,5_7 0
x3,5_26 0
x3,5_29 0
x3,5_48 0
x3,5_55 0
x4,5_7 0
x4,5_26 0
x4,5_29 0
x4,5_48 0
x4,5_55 0
z0 1
z1 1
z2 1
z3 1
z4 0
z5 0
p0 1
p1 30
p2 49
p3 56
p4 64
p5 65
